p cnf 103 360
-4 -5 -6 0
4 5 -6 0
-4 5 6 0
4 -5 6 0
-7 3 0
-7 6 0
-3 -6 7 0
9 7 0
9 -8 0
-7 8 -9 0
-2 -9 -10 0
2 9 -10 0
-2 9 10 0
2 -9 10 0
1 -10 -11 0
-1 10 -11 0
1 10 11 0
-1 -10 11 0
12 4 0
12 -8 0
-4 8 -12 0
-14 13 0
-14 8 0
-13 -8 14 0
15 -2 0
15 14 0
2 -14 -15 0
12 15 -16 0
-12 -15 -16 0
12 -15 16 0
-12 15 16 0
17 -11 0
17 -16 0
11 16 -17 0
-18 12 0
-18 7 0
-12 -7 18 0
-18 -2 -19 0
18 2 -19 0
-18 2 19 0
18 -2 19 0
20 -5 0
20 6 0
5 -6 -20 0
21 -19 0
21 20 0
19 -20 -21 0
-23 12 0
-23 22 0
-12 -22 23 0
24 4 0
24 -23 0
-4 23 -24 0
-25 18 0
-25 24 0
-18 -24 25 0
26 21 0
26 25 0
-21 -25 -26 0
-17 26 -27 0
17 -26 -27 0
-17 -26 27 0
17 26 27 0
-29 -28 0
-29 1 0
28 -1 29 0
-30 28 0
-30 29 0
-28 -29 30 0
32 -4 0
32 -31 0
4 31 -32 0
-33 30 0
-33 -32 0
-30 32 33 0
-34 -27 0
-34 -33 0
27 33 34 0
-35 23 0
-35 -14 0
-23 14 35 0
-38 36 0
-38 -37 0
-36 37 38 0
-18 -8 -39 0
18 8 -39 0
-18 8 39 0
18 -8 39 0
-40 38 0
-40 39 0
-38 -39 40 0
-41 -7 0
-41 -29 0
7 29 41 0
-40 41 -42 0
40 -41 -42 0
-40 -41 42 0
40 41 42 0
-6 -7 -43 0
6 7 -43 0
-6 7 43 0
6 -7 43 0
-44 -42 0
-44 -43 0
42 43 44 0
45 35 0
45 -44 0
-35 44 -45 0
-46 22 0
-46 1 0
-22 -1 46 0
-47 36 0
-47 -6 0
-36 6 47 0
-47 2 -48 0
47 -2 -48 0
-47 -2 48 0
47 2 48 0
-8 -7 -49 0
8 7 -49 0
-8 7 49 0
8 -7 49 0
48 49 -50 0
-48 -49 -50 0
48 -49 50 0
-48 49 50 0
-51 -5 0
-51 -13 0
5 13 51 0
-52 -6 0
-52 -51 0
6 51 52 0
53 50 0
53 52 0
-50 -52 -53 0
-13 20 -54 0
13 -20 -54 0
-13 -20 54 0
13 20 54 0
-55 -14 0
-55 -54 0
14 54 55 0
-56 55 0
-56 -28 0
-55 28 56 0
-57 53 0
-57 56 0
-53 -56 57 0
58 46 0
58 -57 0
-46 57 -58 0
24 -12 -59 0
-24 12 -59 0
24 12 59 0
-24 -12 59 0
-51 -60 0
51 -60 0
6 61 -62 0
-6 -61 -62 0
6 -61 62 0
-6 61 62 0
23 62 -63 0
-23 -62 -63 0
23 -62 63 0
-23 62 63 0
-64 1 0
-64 63 0
-1 -63 64 0
-65 -60 0
-65 64 0
60 -64 65 0
-5 55 -66 0
5 -55 -66 0
-5 -55 66 0
5 55 66 0
-67 -65 0
-67 66 0
65 -66 67 0
-20 -12 -68 0
20 12 -68 0
-20 12 68 0
20 -12 68 0
-69 51 0
-69 -68 0
-51 68 69 0
70 67 0
70 -69 0
-67 69 -70 0
54 51 -71 0
-54 -51 -71 0
54 -51 71 0
-54 51 71 0
-72 -5 0
-72 -71 0
5 71 72 0
74 72 0
74 -73 0
-72 73 -74 0
-12 -2 -75 0
12 2 -75 0
-12 2 75 0
12 -2 75 0
74 75 -76 0
-74 -75 -76 0
74 -75 76 0
-74 75 76 0
-70 76 -77 0
70 -76 -77 0
-70 -76 77 0
70 76 77 0
-14 47 -78 0
14 -47 -78 0
-14 -47 78 0
14 47 78 0
79 22 0
79 78 0
-22 -78 -79 0
80 77 0
80 79 0
-77 -79 -80 0
59 80 -81 0
-59 -80 -81 0
59 -80 81 0
-59 80 81 0
-2 -31 -82 0
2 31 -82 0
-2 31 82 0
2 -31 82 0
-82 14 -83 0
82 -14 -83 0
-82 -14 83 0
82 14 83 0
-84 14 0
-84 -6 0
-14 6 84 0
-85 84 0
-85 7 0
-84 -7 85 0
-86 84 0
-86 -85 0
-84 85 86 0
-68 87 0
68 87 0
-88 -86 0
-88 -87 0
86 87 88 0
5 4 -89 0
-5 -4 -89 0
5 -4 89 0
-5 4 89 0
-88 89 -90 0
88 -89 -90 0
-88 -89 90 0
88 89 90 0
-91 -24 0
-91 -47 0
24 47 91 0
-92 -54 0
-92 -51 0
54 51 92 0
-93 -19 0
-93 -23 0
19 23 93 0
-94 92 0
-94 93 0
-92 -93 94 0
-91 -94 -95 0
91 94 -95 0
-91 94 95 0
91 -94 95 0
-90 -95 -96 0
90 95 -96 0
-90 95 96 0
90 -95 96 0
-97 -83 0
-97 96 0
83 -96 97 0
-24 -5 -98 0
24 5 -98 0
-24 5 98 0
24 -5 98 0
-99 -97 0
-99 -98 0
97 98 99 0
81 99 -100 0
-81 -99 -100 0
81 -99 100 0
-81 99 100 0
-101 -58 0
-101 100 0
58 -100 101 0
45 101 -102 0
-45 -101 -102 0
45 -101 102 0
-45 101 102 0
34 102 -103 0
-34 -102 -103 0
34 -102 103 0
-34 102 103 0
-40 35 44 -54 43 -82 0
-94 -20 -12 0
-53 -96 99 0
-76 -103 16 -35 45 0
39 -100 77 -11 53 0
-90 -51 0
1 -56 0
-96 -86 31 0
36 -32 85 -16 -18 0
-85 79 0
82 -57 85 0
-26 93 85 -8 82 0
75 40 -19 88 0
-26 -31 0
-100 -83 -72 -36 0
27 -2 -68 43 0
23 69 77 26 0
8 -97 -82 0
77 -11 46 76 13 0
-102 -71 101 -3 -63 0
-95 -61 70 -26 25 0
15 -33 92 -18 0
-74 90 0
14 10 -97 0
-82 -71 58 -72 14 0
-45 61 50 -76 0
64 -23 -33 0
-6 67 -85 28 0
-89 -99 -10 0
-87 -15 55 0
13 2 -63 -78 -6 29 0
-34 79 -101 -76 -35 94 0
-40 -43 27 61 -33 29 0
89 71 56 31 -72 -30 0
64 -11 -88 50 -77 0
-15 95 48 13 -7 0
-30 -39 -95 9 33 0
-102 26 40 -85 -67 74 0
-48 -86 -23 -34 78 0
35 -58 89 79 0
93 -27 22 -97 -51 0
-39 -27 56 -36 -2 0
63 -58 72 0
98 -51 -81 -26 0
46 -35 -64 0
99 -94 0
77 -71 100 -87 -16 -67 0
29 87 -58 -12 -88 -19 0
19 -17 45 -23 0
14 -45 52 -16 63 -101 0
81 14 0
-39 87 86 12 0
-17 -89 2 0
-78 7 55 -43 -87 0
-40 53 -99 0
-49 -3 -50 0
-16 -53 43 -12 0
45 62 33 0
92 -87 -4 -45 -46 0
-60 -3 1 62 0
103 0
